l=11919;
a=5;
setup_costs=[|2,3,3,3,3,
|3,0,3,3,3,
|3,3,1,3,3,
|3,3,3,1,3,
|3,3,3,3,1,
|0,0,0,0,0,|];
setup_times=[|1,3,3,3,3,
|3,0,3,3,3,
|3,3,1,3,3,
|3,3,3,2,3,
|3,3,3,3,2,
|0,0,0,0,0,|];
m=5;
min_cap=[0, 0, 0, 0, 0];
max_cap=[14, 26, 42, 38, 33];

initState=[2, 3, 1, 2, 3];
s=10;
m_a_s = [|0,0,2756,4234,6000,7417,7810,8002,9692,11345,
|0,0,0,0,0,0,0,0,1546,1907,
|0,0,0,0,0,0,823,3229,3395,11844,
|357,1598,2033,3210,3996,4308,4644,5145,10535,10644,
|0,0,0,0,0,0,0,0,2077,7636|];
m_a_e = [|0,0,3903,5842,7403,7746,7995,9494,11093,11838,
|0,0,0,0,0,0,0,0,1883,11547,
|0,0,0,0,0,0,3161,3392,9950,11917,
|1506,1947,3196,3807,4272,4630,5125,9231,10632,11834,
|0,0,0,0,0,0,0,0,7188,11599|];
n=1000;
eligible_machine =[{1, 2, 4, 5}, {3, 4, 5}, {2, 4}, {1, 2, 3, 4, 5}, {1, 4, 5}, {1, 4, 5}, {1, 2, 3, 5}, {2, 5}, {5}, {5}, {1, 4, 5}, {1, 3, 4}, {1, 4, 5}, {2, 3}, {1, 4, 5}, {1, 2, 4}, {2, 4}, {2, 3, 4, 5}, {2, 3, 4}, {1, 2, 3, 4}, {3, 4, 5}, {1, 2, 4}, {1, 4, 5}, {2, 3, 5}, {1, 2}, {1, 2, 4}, {1, 3, 5}, {1, 3, 4}, {2, 3, 4, 5}, {1, 2}, {2, 5}, {1, 3, 4}, {2, 4}, {2, 3, 5}, {1, 2, 3, 5}, {2}, {2, 4, 5}, {1, 3, 5}, {1, 2, 5}, {2, 3, 4}, {4, 5}, {2, 3, 4, 5}, {3, 4, 5}, {1, 2, 4}, {1, 2, 3, 4}, {3}, {1, 4, 5}, {1, 2, 4}, {1, 2, 3, 5}, {3}, {1, 4, 5}, {2, 3, 5}, {1, 4}, {1, 4, 5}, {1, 2, 4}, {1, 4, 5}, {3, 4, 5}, {2, 3, 4, 5}, {1, 3, 5}, {2, 5}, {3, 4}, {2, 3, 4, 5}, {2, 4, 5}, {1, 3, 5}, {1, 2, 3, 4, 5}, {1, 2, 4, 5}, {2, 3, 4}, {1, 2, 3}, {2, 3}, {1, 5}, {4}, {2, 3, 4}, {1, 2, 4, 5}, {1, 3, 4}, {1}, {1, 2, 3, 4}, {2, 5}, {1, 2, 4, 5}, {1, 2, 3, 5}, {2, 3, 4}, {1, 2, 3, 5}, {1, 4}, {1, 5}, {2, 3, 5}, {1, 2, 3, 5}, {1, 4}, {1, 4, 5}, {1, 2, 4, 5}, {1, 3, 4, 5}, {1, 5}, {2, 3, 4, 5}, {1, 3, 5}, {2, 3, 4, 5}, {1, 2, 3}, {2, 3}, {1, 2, 4, 5}, {3, 4}, {3, 4, 5}, {1, 2, 3, 4, 5}, {1, 2}, {3, 4}, {1, 3, 4}, {1, 2, 3, 4, 5}, {1, 2}, {1, 5}, {2, 4}, {1, 2, 3, 4}, {1, 2, 5}, {1, 2, 3, 4, 5}, {2, 4, 5}, {2, 3}, {2, 4}, {2, 4, 5}, {1, 2, 4}, {2, 3, 5}, {3, 4, 5}, {1, 3, 5}, {2, 3, 4, 5}, {2, 5}, {1, 2, 4}, {1, 3}, {1, 3, 4, 5}, {4}, {2, 5}, {2, 4}, {1, 2, 3, 4, 5}, {1, 2, 4}, {1, 2}, {2, 3}, {1, 3}, {2, 4, 5}, {4, 5}, {1, 2, 4}, {5}, {4, 5}, {1, 2, 4}, {1, 4}, {2, 3, 5}, {2, 5}, {3, 4}, {1, 3, 5}, {1, 2, 3, 5}, {3, 4, 5}, {2, 3, 5}, {5}, {2, 3, 4, 5}, {2, 3, 4, 5}, {3}, {1, 3, 5}, {2, 4, 5}, {2, 5}, {2, 3, 5}, {1, 2, 3, 4, 5}, {3, 4}, {1, 4, 5}, {3, 4}, {2, 3, 5}, {1, 2, 3}, {1, 2, 3, 4, 5}, {1, 3, 5}, {3, 4}, {2, 4, 5}, {3, 5}, {1, 3, 4, 5}, {2, 4, 5}, {1, 4, 5}, {1, 2, 3}, {1, 5}, {1, 3, 4, 5}, {1, 3, 4, 5}, {1, 2, 3, 5}, {1, 2, 4, 5}, {2, 3, 4, 5}, {1, 2, 3, 4}, {2, 3}, {2, 3, 4}, {1, 2, 3, 4, 5}, {2, 5}, {2, 3, 4, 5}, {1, 2, 4}, {1, 3, 4}, {2, 3, 4}, {1, 2, 3, 4}, {1, 2, 4, 5}, {1, 2, 5}, {1, 2, 3, 4}, {2, 3, 5}, {1, 2, 3, 4}, {1, 3, 4, 5}, {1, 3, 4}, {2, 3, 4, 5}, {1}, {1, 2, 4, 5}, {2, 3, 4, 5}, {1, 4}, {2, 4, 5}, {1, 2, 3, 4}, {1, 3, 4}, {1, 2, 5}, {2, 3, 4, 5}, {1, 2}, {1, 4, 5}, {1, 2, 3, 4, 5}, {1, 3}, {1, 2, 3}, {2, 3, 4, 5}, {2, 3, 4}, {1, 3}, {1, 2, 3, 5}, {1, 2, 4}, {1, 2, 3, 4, 5}, {4}, {3, 5}, {1, 2, 3, 4}, {2, 4}, {1, 3}, {3, 4, 5}, {1, 2, 5}, {1, 3, 4, 5}, {2, 3, 5}, {2, 3, 4, 5}, {1, 2, 3, 5}, {1, 3, 4, 5}, {2, 4}, {1, 2, 3}, {1, 2, 4, 5}, {1, 2, 4}, {1, 2, 3, 5}, {2, 3, 4}, {3, 4}, {4, 5}, {1, 3, 5}, {2, 4, 5}, {2, 4}, {1, 2, 3}, {1, 2}, {1, 2}, {1, 2, 3}, {1, 2, 3, 4}, {1, 3, 4, 5}, {2, 4, 5}, {1, 3, 4, 5}, {1, 2, 4}, {2, 4, 5}, {1, 2, 3, 4, 5}, {1, 3, 4}, {3, 4, 5}, {1, 2, 3, 4, 5}, {2, 3, 4}, {1, 2, 3, 4}, {1, 3, 4, 5}, {2, 3, 4, 5}, {1, 2, 4}, {1, 2, 3, 4, 5}, {2, 3, 4, 5}, {1, 2, 3, 4, 5}, {3, 4, 5}, {4, 5}, {1, 2, 3, 4}, {3}, {1, 3}, {1, 2, 3, 4}, {1, 4, 5}, {1, 3, 5}, {1, 3, 4, 5}, {3}, {4}, {1, 2, 3, 5}, {3, 4}, {2, 3, 5}, {1, 2, 3, 4, 5}, {2}, {1, 2, 5}, {1, 3}, {2, 5}, {1, 3, 4}, {1, 5}, {1, 2, 3, 5}, {3, 4}, {1, 2, 3, 4, 5}, {1, 2, 3, 4, 5}, {1}, {1, 3, 4}, {1, 4}, {1, 2, 3, 5}, {1, 4, 5}, {1, 2, 4}, {2, 5}, {1, 3, 4, 5}, {1, 4}, {1, 3, 5}, {2, 3, 5}, {1, 3, 5}, {1, 3, 5}, {1, 2, 4}, {1, 3}, {1, 4, 5}, {1, 2, 3, 4}, {2, 3, 4, 5}, {1, 3, 5}, {1, 5}, {1, 4, 5}, {1, 3, 4, 5}, {1, 2, 4}, {1, 3, 4}, {4, 5}, {2, 3, 4, 5}, {4, 5}, {1, 4, 5}, {1, 2, 3, 4, 5}, {1, 2, 3}, {1, 3, 4, 5}, {2, 4}, {1, 2, 3, 5}, {1, 2, 4}, {1, 2, 3, 4, 5}, {1, 2, 3, 5}, {1, 2, 3}, {1, 3, 5}, {2, 3}, {3, 4, 5}, {2, 3, 4, 5}, {2, 4, 5}, {1, 3, 5}, {1, 3}, {2, 4}, {1, 4, 5}, {1, 2, 4, 5}, {1, 2, 3, 5}, {1, 3, 4, 5}, {1, 2}, {1, 3, 4, 5}, {2, 3, 4, 5}, {4, 5}, {1, 2}, {2, 3, 4, 5}, {3, 4}, {1, 5}, {2, 4, 5}, {1, 2, 3, 4, 5}, {2, 4}, {1, 4, 5}, {3, 5}, {3, 4, 5}, {1, 2, 5}, {1, 4}, {2, 3, 4, 5}, {1, 5}, {1, 3, 5}, {2, 3, 4, 5}, {1, 2}, {2, 3, 4, 5}, {2, 3, 4}, {1, 2, 4, 5}, {1, 2, 3, 5}, {1, 2, 3, 4}, {2, 3}, {1, 2}, {1, 3}, {4, 5}, {1, 2, 3, 4}, {3, 5}, {1, 2, 4}, {1, 3}, {1, 4, 5}, {1, 2, 4, 5}, {2, 3}, {1, 2}, {1, 2, 3, 5}, {2, 4, 5}, {1, 2, 3, 5}, {1, 3, 4, 5}, {2, 3, 4}, {1, 3, 4}, {2, 4}, {1, 2, 5}, {1, 5}, {1, 2, 3, 4}, {1, 2, 3, 5}, {1, 3, 4}, {2, 3, 5}, {3, 4, 5}, {1, 2, 3, 4, 5}, {2, 4, 5}, {2, 4, 5}, {1, 2}, {1, 2, 3, 4}, {1, 2, 4, 5}, {1, 3, 5}, {1, 4, 5}, {1, 3, 4, 5}, {1, 3, 4}, {1, 2, 3, 5}, {1, 3, 4}, {3, 4, 5}, {2, 3, 4}, {1, 2, 3, 4, 5}, {2, 3, 4, 5}, {1, 5}, {2, 3, 5}, {1, 2, 3}, {1, 2, 3, 5}, {2, 3, 4}, {1, 2, 3, 4, 5}, {2, 3, 5}, {1, 3, 4}, {3, 5}, {1, 3, 4, 5}, {1, 4}, {1, 4}, {1, 2, 4}, {1, 4, 5}, {1, 3, 5}, {1, 2, 3, 4}, {3, 5}, {1, 2, 4, 5}, {2, 5}, {1, 2, 3}, {2, 4, 5}, {2, 5}, {1, 3, 4, 5}, {1, 3}, {2, 3}, {1, 2}, {2, 4}, {2, 3, 4, 5}, {1, 3, 4}, {1, 3, 4}, {1, 2, 4, 5}, {2, 5}, {2, 4, 5}, {2, 5}, {3}, {1, 2, 3, 4, 5}, {4, 5}, {2, 3, 4, 5}, {1, 3, 4}, {2, 4, 5}, {3, 5}, {1, 2, 3, 5}, {1, 2, 4, 5}, {2, 3, 5}, {2, 3, 5}, {2, 4, 5}, {3, 4, 5}, {1, 4}, {1, 3, 4, 5}, {1, 4}, {1, 2, 3, 4, 5}, {3, 5}, {1, 2, 4, 5}, {1, 2, 4, 5}, {2, 3, 4, 5}, {2, 5}, {1, 3, 4}, {2, 5}, {2, 4, 5}, {4}, {2}, {2, 3, 4}, {2, 3, 5}, {2, 3, 5}, {1, 4}, {1, 5}, {2, 3, 4, 5}, {2, 5}, {1, 2, 4, 5}, {1, 3}, {1, 3, 4}, {1, 3, 5}, {2, 3}, {1, 2, 4, 5}, {1, 2, 4, 5}, {1, 3, 4, 5}, {2, 3}, {3, 4, 5}, {1, 2, 4, 5}, {1, 2, 3, 4}, {2, 3, 4}, {2, 3, 4}, {1, 2, 3, 5}, {1, 2, 4, 5}, {1, 3, 5}, {1, 2, 4, 5}, {1, 2, 3, 5}, {1, 3, 4}, {1, 4, 5}, {1, 2, 4, 5}, {2, 3, 4, 5}, {2, 3, 4}, {1, 2, 3, 4, 5}, {2, 3, 4}, {1, 2, 3, 4}, {1, 2, 5}, {1, 4}, {2, 3, 5}, {3, 5}, {1, 4, 5}, {1, 3, 4}, {1, 4, 5}, {1, 3, 4}, {3, 5}, {1, 3, 5}, {1, 2, 5}, {5}, {1, 2, 3, 4}, {1, 2, 4}, {2, 3, 4, 5}, {3}, {3, 4}, {1, 4, 5}, {1, 2, 3, 4}, {1, 2, 3, 4, 5}, {2, 3, 5}, {2, 3, 4, 5}, {3, 4, 5}, {2}, {1, 4, 5}, {1, 4, 5}, {2, 3, 5}, {1, 2, 3, 4, 5}, {1, 4}, {1, 3, 4, 5}, {1, 3, 5}, {1, 3, 4, 5}, {1, 3, 5}, {1, 2, 3}, {2, 3, 4, 5}, {2, 4, 5}, {1, 2, 3, 4, 5}, {1, 5}, {1, 2, 3, 5}, {2, 4, 5}, {1, 2, 5}, {1, 3, 4}, {2}, {1, 2, 3, 4, 5}, {1, 2, 5}, {3, 4}, {1, 3, 4, 5}, {1, 2, 4, 5}, {2, 3, 4}, {2, 5}, {1, 3, 5}, {1, 4}, {2, 4, 5}, {3}, {3, 4}, {1, 2, 4, 5}, {1, 2, 3, 5}, {1, 2, 5}, {2, 3, 4, 5}, {1, 2, 3}, {1, 2, 3, 5}, {1, 2, 4, 5}, {3}, {1, 5}, {2, 4, 5}, {1, 3, 5}, {1, 5}, {1, 2}, {2, 3, 5}, {2, 3, 4}, {3, 5}, {1, 3, 4, 5}, {2, 3, 5}, {1}, {1, 2, 3, 4}, {3}, {1, 3, 4}, {2, 3, 4}, {1, 2, 5}, {2, 3, 4, 5}, {1, 2, 3, 4}, {1, 2, 3, 5}, {2, 4}, {1, 2, 3, 5}, {2, 4}, {2, 3}, {2, 3, 5}, {2, 5}, {4}, {1, 3, 4, 5}, {3}, {2, 3, 4}, {1, 3, 4}, {5}, {2, 3, 4}, {1, 2, 3, 4}, {1, 3, 4}, {1, 4}, {1, 2}, {2}, {3}, {1, 3, 4, 5}, {4, 5}, {2, 4}, {1, 3, 5}, {3}, {1, 2, 5}, {1, 2, 5}, {2, 3, 4}, {1, 2}, {1, 4}, {2, 3, 5}, {3, 5}, {3, 4, 5}, {3, 5}, {1, 2, 3}, {2, 3, 4}, {1, 2, 3, 4, 5}, {1, 2}, {1, 2}, {1, 4, 5}, {1, 2, 3, 5}, {1, 2, 4}, {2, 3, 5}, {1, 3, 4, 5}, {1, 2, 3, 4}, {1}, {1, 2, 3}, {1, 4, 5}, {1, 2, 3, 4, 5}, {2, 4, 5}, {1, 5}, {1, 3, 5}, {1, 2, 3, 4, 5}, {2, 3, 4, 5}, {2, 4, 5}, {3, 4}, {4, 5}, {1, 2, 5}, {2}, {1, 2, 3}, {2, 3, 5}, {1, 3, 4}, {5}, {1, 2, 3}, {3, 5}, {3, 4}, {1, 4}, {2}, {1, 4}, {1, 3}, {1, 3}, {1, 2, 3}, {2}, {1, 2, 3, 4}, {1, 2, 3, 5}, {2, 3, 5}, {1, 2, 5}, {1, 5}, {1, 2, 5}, {2, 3, 4, 5}, {2, 3, 4, 5}, {2, 3, 5}, {1, 2, 3, 4, 5}, {5}, {1, 2, 3, 4, 5}, {1, 2, 4, 5}, {1, 2, 3, 4, 5}, {1, 2, 5}, {1, 4, 5}, {1, 3, 5}, {2, 3, 4}, {2, 3, 5}, {1, 2, 3, 4, 5}, {1, 2, 3, 4}, {1, 2, 3, 5}, {2, 4}, {2, 3, 4, 5}, {2, 3, 4, 5}, {1, 2}, {1, 2}, {1, 2, 4, 5}, {1, 2, 3, 4}, {1, 3}, {1, 2, 3}, {1, 2, 3, 4, 5}, {2, 4}, {2, 3, 5}, {1, 2, 4}, {1, 2, 3, 5}, {1, 2, 4, 5}, {2, 3, 4, 5}, {1, 2, 5}, {1, 2, 3, 5}, {2, 4, 5}, {3, 4}, {3, 5}, {3, 5}, {1, 2, 3, 4}, {5}, {1, 3}, {3}, {3, 5}, {1, 4, 5}, {1, 4, 5}, {3, 4, 5}, {1, 3, 4}, {2, 3}, {1, 2, 3, 4, 5}, {2, 3, 4, 5}, {1, 4, 5}, {1, 4}, {1, 2, 5}, {1, 5}, {1, 2, 4}, {2, 3}, {2, 5}, {3, 4, 5}, {2, 3, 4}, {1, 2, 4}, {1, 4, 5}, {2}, {1, 2, 3, 4}, {3}, {1, 2, 5}, {3, 5}, {2, 4}, {2}, {3, 4, 5}, {2}, {1, 3, 4}, {1, 2, 3}, {3, 4}, {1, 2, 3, 5}, {4, 5}, {1, 4, 5}, {2, 4}, {3, 4}, {1, 3}, {3, 5}, {2, 3}, {1, 2, 3, 5}, {2, 3, 4, 5}, {4, 5}, {2, 3}, {1, 2, 4, 5}, {2, 3, 5}, {1, 3, 4, 5}, {2, 4}, {1, 2, 3}, {5}, {3, 4, 5}, {1, 2, 3}, {1, 2, 4, 5}, {1}, {2, 3, 4, 5}, {2, 3, 5}, {3, 4, 5}, {1, 2, 5}, {1, 2, 3, 5}, {1, 2, 3, 5}, {2, 3, 4, 5}, {2, 3, 4, 5}, {1, 2, 5}, {2, 3, 4, 5}, {2, 3, 5}, {2, 3, 4, 5}, {3, 4, 5}, {2, 4, 5}, {1, 2, 3, 4}, {1}, {3, 5}, {4, 5}, {1, 4, 5}, {1, 5}, {2, 4, 5}, {2, 4}, {1, 3, 5}, {1, 4}, {2, 3, 4}, {1, 2, 3, 4, 5}, {1, 3, 5}, {2, 4, 5}, {1}, {2, 3, 5}, {2, 3, 5}, {1}, {1, 2, 3, 4}, {1, 3, 5}, {1, 4, 5}, {1, 2, 4}, {1, 4, 5}, {2, 4}, {1, 4}, {1, 4, 5}, {1, 3, 4, 5}, {1, 2, 4, 5}, {1, 4, 5}, {3, 4}, {1, 2, 3, 4, 5}, {1, 4, 5}, {1, 3, 4, 5}, {2, 3, 4, 5}, {1, 3, 5}, {1, 2, 3, 4, 5}, {1, 4}, {1, 2, 5}, {1, 3, 4}, {2, 5}, {1, 2, 3, 5}, {2, 4, 5}, {2, 3, 4}, {1, 2, 3, 4, 5}, {1, 2, 3, 4}, {1, 3, 4, 5}, {1, 2, 3, 4, 5}, {1, 3, 4}, {2, 3, 5}, {2, 3, 4, 5}, {3, 4, 5}, {2, 3}, {1, 2, 3, 5}, {1, 2, 4, 5}, {1, 2, 3, 4}, {3, 5}, {1, 3, 4, 5}, {1, 2, 3}, {3, 5}, {2, 5}, {3, 5}, {1, 2, 3, 4}, {2, 3, 4, 5}, {1, 2, 3, 5}, {1, 4, 5}, {1, 2, 4}, {1, 2, 3, 4}, {1, 2, 4, 5}, {1, 2, 3, 5}, {1, 4, 5}, {2, 3, 4, 5}, {2, 5}, {2}, {3}, {1, 2, 3}, {2, 4, 5}, {1, 2, 5}, {1}, {2, 5}, {2, 4, 5}, {4, 5}, {1, 3, 4, 5}, {1, 2, 4, 5}, {1, 2, 4, 5}, {2, 3, 5}, {1, 3}, {3, 5}, {1, 3, 5}, {1, 2, 3}, {1, 2}, {2, 3, 4, 5}, {1, 3, 5}, {1, 3, 5}, {1, 2, 3, 4}, {3, 4}, {1, 2, 3, 5}, {1, 3}, {1, 2, 3, 5}, {2}, {1, 2, 5}, {1, 3}, {1, 3, 4}, {2, 3, 5}, {2, 4, 5}, {1, 2, 4, 5}, {2, 3, 4}, {2, 4, 5}, {2, 4}, {1, 3, 5}, {3, 5}, {3, 4}, {1, 2, 3}, {1, 2}, {4, 5}, {1, 2, 3, 4, 5}, {1, 2, 4}, {3, 4, 5}, {1, 2, 5}, {3, 4, 5}, {2, 3, 4, 5}, {1, 3, 4}, {1, 2, 3, 4}, {1, 2}, {1, 2, 4}, {1, 2, 5}, {2, 3, 5}, {3, 5}, {1, 2, 4, 5}, {4, 5}, {4}, {2, 3, 4}, {1, 2, 4, 5}, {1, 2, 3, 4, 5}, {2, 3, 4, 5}, {1, 2, 3, 5}, {4, 5}, {1, 2, 4}, {1, 2, 5}, {2, 5}, {1, 2, 3, 4}, {1, 3, 4, 5}, {1, 2, 3, 5}, {2, 3}, {2, 4}, {2, 4}, {1, 3}, {1, 4, 5}, {1, 2, 4, 5}, {1, 2, 3, 4, 5}, {1, 3, 4, 5}, {2, 3, 4, 5}, {3, 4, 5}, {2, 4, 5}, {1, 2, 3, 4}, {3, 4, 5}, {1, 2, 4, 5}, {2, 3}, {1, 2, 3}, {2, 4}, {2, 4}, {1, 5}, {1, 2, 4, 5}, {2, 3, 4, 5}, {2, 3, 4, 5}, {2, 5}, {1, 2, 3, 4}, {2, 3, 4, 5}, {3, 5}, {1, 3, 4}, {1, 3}, {2, 3, 5}, {1, 4, 5}, {1, 3, 5}, {1, 2, 3, 5}, {1, 2, 3, 5}, {2, 3, 4, 5}, {2, 4, 5}, {1, 4, 5}, {4}, {1, 3, 4, 5}, {3, 5}, {1, 2, 3, 5}, {4, 5}, {1, 3, 4, 5}, {1, 3, 5}, {2, 3, 4, 5}, {2, 3, 4}, {3, 5}, {1, 5}, {1, 5}, {2, 3, 5}, {1, 2, 5}, {2, 3, 4, 5}, {2}, {2, 5}, {1, 2}, {1, 2, 3}, {3, 5}, {1, 2, 3, 4, 5}, {2, 4}, {4, 5}, {2, 3, 5}, {1, 4, 5}, {1, 2, 3, 4, 5}, {3}, {1, 2, 3, 4, 5}, {1, 2, 5}, {1, 2, 3}, {1, 3, 4, 5}, {2, 4, 5}, {1, 4, 5}, {2, 3, 4, 5}, {2}, {1, 3, 4, 5}, {3, 4, 5}, {1, 2, 4, 5}, {1, 2, 3, 4, 5}, {1, 2, 3, 4, 5}, {2, 3, 4, 5}, {2, 5}, {1, 2}, {1, 4}, {1, 2, 3, 4, 5}, {1, 2, 3, 5}, {1, 2, 4, 5}, {1, 3, 5}, {2, 4}, {1, 5}, {1, 2}, {1, 4, 5}, {1, 2, 5}, {1, 2, 3, 4}, {1, 2, 4}, {1, 3, 4}, {2, 3, 5}, {1, 2}, {3, 4, 5}, {1, 2, 3, 4}];
earliest_start=[149, 236, 488, 486, 455, 128, 11, 166, 476, 360, 35, 107, 103, 451, 198, 376, 149, 145, 497, 218, 191, 38, 530, 151, 284, 218, 407, 163, 412, 277, 342, 493, 457, 9, 65, 223, 486, 75, 349, 396, 178, 468, 515, 235, 459, 210, 526, 13, 45, 419, 97, 113, 384, 512, 462, 257, 107, 299, 301, 342, 34, 251, 391, 428, 29, 331, 430, 161, 450, 67, 324, 439, 259, 521, 239, 290, 552, 240, 275, 284, 529, 530, 208, 92, 443, 179, 511, 488, 5, 292, 152, 85, 27, 94, 305, 21, 236, 336, 193, 220, 439, 207, 278, 457, 404, 371, 129, 333, 75, 440, 54, 381, 119, 322, 448, 29, 41, 468, 191, 531, 412, 350, 259, 340, 140, 382, 242, 528, 148, 256, 258, 395, 470, 13, 204, 101, 65, 455, 145, 553, 201, 350, 387, 170, 360, 518, 393, 233, 367, 405, 410, 310, 7, 17, 307, 296, 446, 362, 406, 111, 317, 54, 72, 90, 4, 56, 20, 170, 497, 282, 121, 173, 439, 353, 487, 57, 157, 315, 347, 528, 16, 149, 3, 461, 521, 251, 234, 67, 501, 298, 477, 335, 4, 174, 440, 118, 360, 130, 435, 385, 97, 175, 400, 514, 381, 485, 518, 335, 200, 134, 527, 316, 191, 3, 281, 235, 115, 137, 229, 178, 256, 221, 275, 319, 485, 152, 278, 141, 21, 411, 108, 541, 131, 396, 131, 333, 156, 8, 85, 26, 390, 368, 447, 279, 170, 496, 32, 467, 141, 551, 473, 250, 165, 44, 114, 19, 135, 509, 41, 92, 70, 257, 143, 259, 35, 467, 198, 152, 512, 504, 259, 543, 73, 133, 293, 179, 438, 139, 403, 169, 191, 24, 268, 129, 294, 33, 219, 30, 480, 1, 507, 404, 150, 496, 60, 508, 202, 235, 139, 156, 88, 532, 438, 91, 521, 154, 54, 320, 5, 547, 528, 128, 354, 1, 274, 489, 136, 48, 498, 242, 168, 92, 84, 320, 383, 414, 220, 320, 440, 25, 525, 401, 390, 437, 520, 405, 442, 122, 5, 281, 424, 184, 202, 391, 64, 239, 546, 349, 278, 518, 431, 552, 397, 185, 380, 29, 474, 523, 310, 82, 98, 548, 394, 171, 104, 254, 463, 197, 8, 445, 286, 431, 344, 547, 205, 42, 145, 258, 484, 342, 436, 552, 61, 181, 503, 398, 153, 391, 427, 232, 298, 288, 10, 273, 302, 151, 388, 329, 431, 325, 161, 441, 254, 325, 240, 268, 453, 221, 493, 49, 81, 44, 58, 399, 352, 190, 80, 115, 65, 78, 515, 438, 169, 100, 90, 321, 428, 421, 111, 46, 25, 67, 471, 277, 24, 506, 354, 186, 116, 250, 208, 420, 76, 487, 4, 146, 547, 310, 13, 10, 364, 322, 363, 139, 200, 92, 132, 382, 222, 233, 74, 405, 553, 349, 317, 464, 473, 225, 226, 120, 108, 171, 179, 37, 78, 457, 331, 260, 67, 172, 338, 222, 346, 39, 505, 390, 122, 376, 190, 238, 83, 37, 361, 479, 468, 495, 285, 30, 553, 264, 202, 247, 438, 296, 24, 99, 143, 278, 147, 480, 241, 12, 128, 378, 404, 406, 1, 370, 411, 266, 10, 40, 134, 310, 160, 365, 97, 37, 456, 349, 447, 341, 353, 84, 10, 231, 161, 530, 503, 428, 201, 302, 131, 500, 124, 4, 238, 520, 386, 409, 425, 533, 407, 153, 535, 430, 264, 15, 195, 132, 337, 439, 94, 140, 553, 553, 319, 231, 490, 118, 417, 338, 472, 459, 265, 337, 551, 421, 443, 111, 125, 37, 303, 388, 185, 327, 272, 14, 212, 19, 370, 366, 145, 428, 516, 254, 73, 338, 524, 308, 112, 25, 155, 205, 470, 48, 514, 35, 83, 183, 516, 451, 110, 387, 468, 8, 85, 210, 366, 528, 318, 500, 457, 437, 272, 377, 228, 546, 155, 28, 159, 163, 298, 141, 443, 552, 276, 2, 328, 278, 283, 149, 511, 36, 196, 66, 333, 310, 400, 145, 468, 71, 309, 126, 319, 542, 382, 508, 510, 433, 479, 237, 452, 133, 179, 18, 125, 7, 30, 240, 469, 4, 341, 2, 553, 530, 77, 63, 447, 326, 506, 389, 392, 61, 537, 261, 155, 331, 192, 353, 482, 309, 391, 429, 457, 26, 384, 118, 0, 285, 68, 502, 40, 332, 313, 443, 510, 96, 101, 69, 218, 550, 318, 51, 400, 190, 96, 345, 221, 239, 397, 367, 529, 514, 297, 353, 241, 552, 100, 395, 323, 15, 451, 498, 115, 418, 354, 543, 275, 102, 270, 473, 454, 332, 151, 73, 247, 372, 150, 356, 97, 98, 158, 164, 274, 547, 443, 238, 487, 405, 44, 236, 149, 404, 399, 200, 507, 18, 326, 131, 105, 221, 535, 322, 126, 505, 203, 235, 240, 416, 142, 355, 175, 441, 49, 467, 547, 338, 143, 549, 430, 91, 489, 169, 299, 527, 531, 34, 499, 95, 164, 70, 310, 17, 75, 298, 531, 106, 227, 169, 163, 29, 214, 422, 489, 208, 494, 183, 403, 536, 399, 416, 398, 20, 17, 48, 535, 60, 142, 78, 389, 134, 322, 460, 292, 219, 512, 434, 367, 342, 110, 404, 332, 497, 163, 379, 288, 349, 478, 92, 373, 324, 32, 418, 207, 42, 217, 345, 153, 225, 254, 169, 89, 66, 523, 31, 174, 195, 439, 532, 116, 174, 533, 212, 238, 297, 232, 393, 371, 326, 138, 402, 181, 353, 245, 63, 523, 488, 392, 328, 516, 64, 174, 445, 257, 125, 477, 147, 272, 262, 171, 419, 148, 295, 389, 451, 186, 420, 11, 102, 10, 149, 125, 7, 65, 454, 377, 449, 454, 239, 455, 205, 62, 97, 356, 366, 271, 316, 355, 200, 41, 15, 357, 96, 309, 478, 469, 488, 469, 376, 334, 258, 390, 36, 68, 436, 165, 19, 356, 24, 291, 373, 297, 300, 191, 115, 505, 520, 96, 405, 242, 12, 179, 232, 482, 375, 378, 492, 355, 20, 303, 12, 98, 271, 238, 282, 456, 120, 21, 65, 389, 47, 79, 448, 8, 380, 197, 133, 484, 441, 420, 305, 340, 453, 503, 272, 426, 29, 299, 222];
latest_end=[157, 261, 501, 505, 467, 129, 44, 195, 478, 379, 49, 109, 110, 454, 204, 386, 166, 150, 510, 224, 210, 47, 571, 153, 318, 236, 416, 192, 447, 281, 356, 494, 463, 31, 81, 237, 487, 81, 360, 412, 192, 500, 531, 241, 466, 219, 540, 19, 60, 427, 140, 116, 403, 515, 466, 260, 117, 304, 310, 351, 52, 266, 398, 453, 48, 353, 450, 176, 452, 84, 367, 454, 263, 526, 273, 301, 556, 252, 282, 304, 537, 565, 246, 102, 479, 189, 518, 518, 24, 315, 161, 115, 58, 98, 333, 25, 260, 358, 222, 251, 484, 217, 281, 476, 407, 385, 134, 341, 82, 444, 68, 407, 159, 331, 457, 50, 57, 489, 201, 552, 416, 363, 277, 360, 146, 417, 245, 559, 160, 265, 265, 418, 478, 23, 216, 127, 105, 471, 165, 571, 211, 378, 400, 172, 363, 542, 420, 258, 375, 414, 457, 325, 12, 23, 319, 300, 455, 402, 411, 124, 321, 63, 79, 113, 6, 72, 28, 183, 501, 313, 134, 203, 441, 378, 500, 61, 187, 331, 365, 536, 30, 153, 11, 503, 543, 265, 242, 77, 502, 317, 505, 354, 20, 189, 447, 136, 399, 154, 446, 394, 136, 182, 405, 525, 403, 493, 565, 344, 207, 164, 542, 346, 210, 7, 294, 260, 133, 156, 238, 182, 269, 240, 281, 337, 505, 164, 283, 162, 52, 445, 110, 564, 144, 407, 140, 340, 164, 27, 89, 30, 411, 372, 478, 302, 179, 524, 60, 470, 181, 591, 488, 284, 197, 65, 131, 23, 144, 538, 69, 120, 95, 264, 151, 288, 43, 477, 236, 166, 518, 547, 270, 553, 81, 140, 297, 181, 457, 148, 409, 180, 216, 34, 289, 161, 305, 46, 233, 35, 505, 22, 553, 433, 164, 498, 91, 511, 206, 246, 162, 162, 101, 553, 446, 101, 536, 160, 81, 334, 14, 556, 532, 131, 366, 11, 298, 503, 145, 64, 503, 257, 184, 121, 97, 342, 387, 417, 240, 348, 464, 29, 533, 408, 404, 457, 525, 412, 476, 126, 18, 302, 468, 192, 205, 404, 111, 272, 562, 356, 302, 519, 435, 555, 427, 228, 402, 51, 514, 547, 333, 90, 101, 568, 410, 188, 119, 267, 467, 207, 26, 451, 289, 444, 353, 563, 209, 59, 158, 280, 495, 349, 465, 577, 63, 193, 525, 412, 157, 425, 443, 245, 311, 297, 15, 276, 319, 174, 397, 339, 434, 331, 183, 448, 265, 333, 247, 291, 458, 269, 536, 70, 88, 66, 63, 408, 362, 192, 95, 139, 71, 116, 523, 454, 192, 136, 131, 324, 454, 429, 123, 70, 32, 73, 480, 290, 51, 540, 368, 207, 119, 274, 213, 443, 77, 495, 26, 148, 588, 337, 14, 14, 377, 342, 373, 144, 212, 97, 160, 389, 252, 258, 86, 425, 577, 381, 324, 483, 484, 233, 230, 131, 120, 190, 206, 41, 80, 473, 344, 262, 81, 201, 359, 241, 362, 65, 534, 391, 136, 380, 210, 242, 91, 40, 365, 490, 497, 513, 294, 59, 564, 284, 205, 294, 444, 307, 31, 121, 160, 303, 151, 487, 257, 19, 164, 389, 416, 410, 10, 400, 433, 278, 11, 60, 165, 333, 172, 369, 126, 49, 464, 364, 462, 352, 362, 89, 15, 237, 186, 552, 507, 457, 221, 304, 168, 539, 154, 29, 266, 530, 410, 412, 460, 540, 425, 169, 555, 468, 303, 23, 223, 153, 349, 445, 107, 142, 570, 573, 337, 250, 492, 150, 436, 367, 474, 486, 299, 371, 561, 428, 456, 121, 146, 44, 317, 398, 202, 336, 280, 17, 215, 27, 381, 367, 176, 441, 521, 261, 95, 363, 529, 310, 119, 53, 166, 218, 479, 56, 531, 59, 105, 198, 524, 456, 124, 432, 480, 34, 95, 253, 374, 531, 352, 513, 468, 455, 309, 381, 234, 565, 183, 37, 168, 166, 315, 148, 460, 578, 280, 5, 341, 289, 288, 163, 512, 37, 239, 76, 342, 331, 402, 152, 495, 75, 313, 150, 326, 556, 394, 522, 548, 437, 496, 258, 459, 134, 193, 58, 143, 9, 48, 248, 498, 5, 382, 13, 566, 532, 92, 71, 454, 328, 514, 427, 406, 87, 541, 284, 178, 346, 225, 369, 508, 321, 418, 443, 464, 38, 403, 142, 30, 296, 80, 513, 41, 344, 338, 465, 537, 121, 111, 70, 237, 558, 327, 56, 403, 202, 98, 356, 235, 254, 441, 386, 540, 527, 315, 372, 248, 554, 101, 401, 338, 24, 487, 544, 119, 428, 365, 553, 290, 130, 281, 505, 464, 356, 177, 101, 270, 381, 159, 365, 117, 102, 193, 196, 281, 557, 448, 266, 495, 412, 72, 238, 156, 424, 408, 202, 546, 28, 335, 132, 122, 230, 544, 331, 137, 519, 232, 249, 262, 434, 155, 360, 201, 464, 53, 489, 589, 343, 172, 558, 473, 94, 515, 180, 328, 554, 544, 55, 521, 119, 166, 107, 321, 25, 77, 313, 567, 115, 249, 193, 184, 37, 216, 430, 501, 219, 507, 192, 418, 539, 426, 425, 404, 31, 28, 58, 567, 76, 172, 92, 416, 145, 362, 494, 316, 236, 520, 453, 370, 345, 124, 407, 347, 525, 181, 399, 292, 386, 483, 102, 382, 328, 36, 432, 210, 48, 240, 350, 166, 248, 263, 208, 97, 98, 546, 41, 217, 196, 454, 566, 128, 182, 563, 231, 250, 306, 247, 406, 375, 330, 172, 440, 188, 355, 273, 64, 534, 499, 413, 337, 535, 70, 179, 462, 271, 132, 491, 174, 279, 287, 178, 442, 165, 305, 407, 453, 213, 438, 20, 111, 39, 156, 131, 15, 94, 475, 401, 464, 456, 251, 458, 211, 67, 128, 398, 376, 275, 331, 386, 203, 78, 27, 384, 101, 335, 508, 496, 521, 478, 393, 347, 275, 411, 52, 98, 445, 171, 29, 367, 67, 312, 383, 323, 304, 211, 144, 542, 553, 120, 439, 252, 32, 181, 266, 507, 382, 384, 510, 381, 41, 308, 24, 130, 282, 264, 313, 485, 135, 57, 75, 391, 86, 82, 455, 20, 392, 206, 155, 488, 444, 437, 313, 354, 474, 517, 286, 427, 52, 301, 225];
min_time=[3, 6, 7, 4, 7, 1, 9, 6, 2, 9, 5, 1, 6, 1, 2, 4, 4, 4, 9, 6, 4, 6, 9, 1, 9, 6, 3, 8, 8, 1, 4, 1, 2, 10, 4, 3, 1, 4, 6, 5, 9, 9, 4, 4, 5, 3, 3, 3, 10, 4, 10, 2, 5, 2, 1, 1, 3, 3, 4, 4, 9, 8, 3, 7, 10, 9, 8, 5, 2, 10, 9, 4, 1, 2, 10, 4, 1, 10, 6, 5, 6, 9, 8, 3, 10, 3, 7, 9, 5, 10, 6, 8, 8, 2, 7, 4, 5, 7, 8, 8, 10, 3, 2, 10, 2, 4, 3, 8, 3, 4, 8, 7, 10, 2, 4, 9, 6, 5, 10, 6, 2, 5, 5, 7, 5, 8, 1, 7, 5, 5, 3, 7, 5, 7, 9, 9, 10, 5, 5, 6, 3, 8, 7, 1, 2, 7, 6, 10, 3, 2, 10, 8, 4, 6, 3, 3, 8, 9, 2, 3, 1, 4, 2, 9, 1, 7, 5, 5, 4, 9, 7, 10, 1, 9, 3, 3, 9, 4, 8, 7, 9, 1, 3, 10, 5, 7, 5, 6, 1, 5, 7, 8, 5, 6, 5, 5, 8, 5, 3, 6, 9, 3, 2, 6, 6, 2, 10, 6, 6, 7, 6, 8, 5, 1, 7, 8, 7, 9, 2, 1, 8, 6, 2, 6, 6, 6, 3, 6, 7, 10, 1, 6, 4, 3, 2, 2, 3, 4, 1, 2, 8, 1, 10, 7, 6, 6, 7, 1, 10, 10, 7, 7, 7, 9, 6, 1, 6, 8, 6, 10, 6, 7, 8, 10, 2, 3, 9, 7, 4, 10, 3, 7, 4, 3, 1, 2, 5, 5, 3, 8, 10, 5, 10, 9, 3, 3, 6, 3, 7, 5, 10, 9, 4, 1, 10, 1, 3, 8, 10, 2, 6, 7, 2, 3, 10, 2, 6, 7, 2, 4, 1, 2, 5, 8, 9, 4, 2, 4, 5, 7, 5, 6, 9, 10, 1, 1, 5, 6, 10, 3, 5, 6, 3, 8, 2, 5, 7, 4, 8, 8, 10, 7, 2, 3, 10, 9, 6, 2, 5, 1, 1, 1, 8, 10, 7, 7, 9, 9, 9, 7, 1, 8, 6, 5, 5, 10, 1, 4, 5, 3, 3, 5, 2, 9, 2, 4, 6, 8, 7, 2, 7, 8, 2, 5, 10, 10, 1, 7, 6, 9, 4, 3, 2, 2, 7, 8, 6, 4, 3, 5, 9, 7, 8, 3, 4, 9, 2, 10, 10, 6, 3, 9, 3, 3, 5, 1, 10, 5, 2, 10, 8, 6, 5, 8, 10, 1, 7, 2, 7, 9, 2, 3, 8, 6, 9, 9, 5, 8, 1, 5, 2, 10, 1, 8, 5, 1, 9, 8, 1, 3, 6, 8, 3, 5, 4, 4, 9, 4, 10, 8, 3, 9, 8, 7, 5, 10, 5, 2, 2, 5, 10, 4, 7, 1, 2, 7, 4, 1, 8, 9, 5, 8, 7, 8, 6, 1, 6, 1, 9, 1, 7, 2, 1, 3, 8, 4, 3, 6, 3, 5, 1, 10, 5, 5, 3, 10, 10, 8, 2, 3, 4, 2, 8, 3, 8, 3, 7, 10, 7, 7, 1, 7, 7, 6, 6, 2, 6, 8, 4, 4, 4, 3, 8, 4, 4, 4, 7, 10, 1, 7, 7, 2, 10, 9, 9, 9, 7, 3, 10, 1, 9, 2, 9, 7, 10, 9, 8, 7, 7, 10, 3, 4, 7, 1, 4, 6, 10, 6, 1, 9, 7, 6, 1, 8, 9, 9, 10, 2, 8, 10, 5, 5, 7, 10, 10, 2, 2, 1, 2, 3, 10, 1, 9, 4, 4, 3, 6, 6, 3, 1, 3, 7, 3, 9, 3, 2, 4, 5, 8, 10, 4, 4, 10, 10, 3, 6, 4, 10, 7, 3, 9, 5, 3, 5, 8, 3, 4, 9, 9, 2, 3, 2, 5, 4, 6, 7, 3, 1, 3, 10, 2, 5, 1, 1, 9, 6, 4, 6, 1, 2, 8, 1, 1, 5, 3, 4, 3, 3, 8, 1, 5, 6, 7, 1, 8, 10, 5, 1, 10, 3, 6, 1, 10, 3, 4, 1, 5, 4, 2, 2, 2, 9, 10, 6, 1, 8, 7, 7, 9, 7, 7, 6, 6, 8, 6, 5, 4, 5, 9, 8, 7, 8, 1, 7, 10, 8, 8, 6, 6, 1, 10, 6, 2, 2, 1, 6, 1, 3, 4, 9, 10, 7, 5, 6, 5, 8, 3, 2, 1, 5, 5, 5, 10, 10, 4, 4, 6, 7, 6, 8, 8, 8, 3, 10, 6, 6, 5, 9, 2, 3, 9, 2, 9, 7, 2, 6, 2, 10, 6, 2, 9, 1, 6, 5, 3, 1, 8, 6, 4, 1, 8, 5, 4, 6, 5, 9, 8, 6, 7, 10, 4, 5, 9, 5, 4, 6, 9, 3, 8, 2, 9, 3, 8, 5, 8, 8, 6, 5, 7, 5, 1, 9, 10, 2, 1, 6, 9, 9, 5, 5, 7, 5, 2, 6, 4, 3, 8, 6, 8, 1, 8, 2, 4, 8, 8, 8, 8, 4, 7, 4, 7, 4, 9, 8, 7, 8, 4, 5, 2, 3, 4, 1, 8, 9, 4, 5, 1, 10, 3, 7, 5, 4, 1, 7, 1, 3, 9, 2, 5, 8, 3, 8, 4, 10, 8, 3, 9, 1, 10, 10, 6, 5, 8, 7, 4, 2, 6, 7, 3, 4, 9, 10, 2, 1, 6, 1, 5, 3, 7, 9, 10, 2, 2, 4, 3, 2, 4, 9, 2, 8, 3, 10, 5, 7, 4, 1, 6, 4, 2, 3, 7, 5, 5, 3, 6, 6, 6, 5, 1, 3, 3, 3, 3, 10, 9, 10, 3, 6, 10, 2, 9, 6, 8, 2, 8, 10, 6, 9, 2, 6, 10, 10, 6, 10, 7, 3, 4, 6, 5, 10, 5, 4, 9, 2, 8, 7, 8, 7, 9, 7, 6, 7, 1, 9, 7, 4, 3, 5, 8, 6, 2, 4, 10, 10, 8, 8, 9, 9, 10, 10, 2, 10, 3, 5, 4, 7, 3, 10, 1, 2, 8, 8, 3, 5, 8, 6, 1, 9, 2, 1];
max_time=[10, 10, 10, 10, 10, 10, 10, 10, 10, 10, 10, 10, 10, 10, 10, 10, 10, 10, 10, 10, 10, 10, 10, 10, 10, 10, 10, 10, 10, 10, 10, 10, 10, 10, 10, 10, 10, 10, 10, 10, 10, 10, 10, 10, 10, 10, 10, 10, 10, 10, 10, 10, 10, 10, 10, 10, 10, 10, 10, 10, 10, 10, 10, 10, 10, 10, 10, 10, 10, 10, 10, 10, 10, 10, 10, 10, 10, 10, 10, 10, 10, 10, 10, 10, 10, 10, 10, 10, 10, 10, 10, 10, 10, 10, 10, 10, 10, 10, 10, 10, 10, 10, 10, 10, 10, 10, 10, 10, 10, 10, 10, 10, 10, 10, 10, 10, 10, 10, 10, 10, 10, 10, 10, 10, 10, 10, 10, 10, 10, 10, 10, 10, 10, 10, 10, 10, 10, 10, 10, 10, 10, 10, 10, 10, 10, 10, 10, 10, 10, 10, 10, 10, 10, 10, 10, 10, 10, 10, 10, 10, 10, 10, 10, 10, 10, 10, 10, 10, 10, 10, 10, 10, 10, 10, 10, 10, 10, 10, 10, 10, 10, 10, 10, 10, 10, 10, 10, 10, 10, 10, 10, 10, 10, 10, 10, 10, 10, 10, 10, 10, 10, 10, 10, 10, 10, 10, 10, 10, 10, 10, 10, 10, 10, 10, 10, 10, 10, 10, 10, 10, 10, 10, 10, 10, 10, 10, 10, 10, 10, 10, 10, 10, 10, 10, 10, 10, 10, 10, 10, 10, 10, 10, 10, 10, 10, 10, 10, 10, 10, 10, 10, 10, 10, 10, 10, 10, 10, 10, 10, 10, 10, 10, 10, 10, 10, 10, 10, 10, 10, 10, 10, 10, 10, 10, 10, 10, 10, 10, 10, 10, 10, 10, 10, 10, 10, 10, 10, 10, 10, 10, 10, 10, 10, 10, 10, 10, 10, 10, 10, 10, 10, 10, 10, 10, 10, 10, 10, 10, 10, 10, 10, 10, 10, 10, 10, 10, 10, 10, 10, 10, 10, 10, 10, 10, 10, 10, 10, 10, 10, 10, 10, 10, 10, 10, 10, 10, 10, 10, 10, 10, 10, 10, 10, 10, 10, 10, 10, 10, 10, 10, 10, 10, 10, 10, 10, 10, 10, 10, 10, 10, 10, 10, 10, 10, 10, 10, 10, 10, 10, 10, 10, 10, 10, 10, 10, 10, 10, 10, 10, 10, 10, 10, 10, 10, 10, 10, 10, 10, 10, 10, 10, 10, 10, 10, 10, 10, 10, 10, 10, 10, 10, 10, 10, 10, 10, 10, 10, 10, 10, 10, 10, 10, 10, 10, 10, 10, 10, 10, 10, 10, 10, 10, 10, 10, 10, 10, 10, 10, 10, 10, 10, 10, 10, 10, 10, 10, 10, 10, 10, 10, 10, 10, 10, 10, 10, 10, 10, 10, 10, 10, 10, 10, 10, 10, 10, 10, 10, 10, 10, 10, 10, 10, 10, 10, 10, 10, 10, 10, 10, 10, 10, 10, 10, 10, 10, 10, 10, 10, 10, 10, 10, 10, 10, 10, 10, 10, 10, 10, 10, 10, 10, 10, 10, 10, 10, 10, 10, 10, 10, 10, 10, 10, 10, 10, 10, 10, 10, 10, 10, 10, 10, 10, 10, 10, 10, 10, 10, 10, 10, 10, 10, 10, 10, 10, 10, 10, 10, 10, 10, 10, 10, 10, 10, 10, 10, 10, 10, 10, 10, 10, 10, 10, 10, 10, 10, 10, 10, 10, 10, 10, 10, 10, 10, 10, 10, 10, 10, 10, 10, 10, 10, 10, 10, 10, 10, 10, 10, 10, 10, 10, 10, 10, 10, 10, 10, 10, 10, 10, 10, 10, 10, 10, 10, 10, 10, 10, 10, 10, 10, 10, 10, 10, 10, 10, 10, 10, 10, 10, 10, 10, 10, 10, 10, 10, 10, 10, 10, 10, 10, 10, 10, 10, 10, 10, 10, 10, 10, 10, 10, 10, 10, 10, 10, 10, 10, 10, 10, 10, 10, 10, 10, 10, 10, 10, 10, 10, 10, 10, 10, 10, 10, 10, 10, 10, 10, 10, 10, 10, 10, 10, 10, 10, 10, 10, 10, 10, 10, 10, 10, 10, 10, 10, 10, 10, 10, 10, 10, 10, 10, 10, 10, 10, 10, 10, 10, 10, 10, 10, 10, 10, 10, 10, 10, 10, 10, 10, 10, 10, 10, 10, 10, 10, 10, 10, 10, 10, 10, 10, 10, 10, 10, 10, 10, 10, 10, 10, 10, 10, 10, 10, 10, 10, 10, 10, 10, 10, 10, 10, 10, 10, 10, 10, 10, 10, 10, 10, 10, 10, 10, 10, 10, 10, 10, 10, 10, 10, 10, 10, 10, 10, 10, 10, 10, 10, 10, 10, 10, 10, 10, 10, 10, 10, 10, 10, 10, 10, 10, 10, 10, 10, 10, 10, 10, 10, 10, 10, 10, 10, 10, 10, 10, 10, 10, 10, 10, 10, 10, 10, 10, 10, 10, 10, 10, 10, 10, 10, 10, 10, 10, 10, 10, 10, 10, 10, 10, 10, 10, 10, 10, 10, 10, 10, 10, 10, 10, 10, 10, 10, 10, 10, 10, 10, 10, 10, 10, 10, 10, 10, 10, 10, 10, 10, 10, 10, 10, 10, 10, 10, 10, 10, 10, 10, 10, 10, 10, 10, 10, 10, 10, 10, 10, 10, 10, 10, 10, 10, 10, 10, 10, 10, 10, 10, 10, 10, 10, 10, 10, 10, 10, 10, 10, 10, 10, 10, 10, 10, 10, 10, 10, 10, 10, 10, 10, 10, 10, 10, 10, 10, 10, 10, 10, 10, 10, 10, 10, 10, 10, 10, 10, 10, 10, 10, 10, 10, 10, 10, 10, 10, 10, 10, 10, 10, 10, 10, 10, 10, 10, 10, 10, 10, 10, 10, 10, 10, 10, 10, 10, 10, 10, 10, 10, 10, 10, 10, 10, 10, 10, 10, 10, 10, 10, 10, 10, 10, 10, 10, 10, 10, 10, 10, 10, 10, 10, 10, 10, 10, 10, 10, 10, 10, 10, 10, 10, 10, 10, 10, 10, 10, 10, 10, 10, 10, 10, 10, 10, 10, 10, 10, 10, 10, 10, 10, 10, 10, 10, 10, 10, 10, 10, 10, 10, 10, 10, 10, 10, 10, 10, 10, 10, 10, 10, 10, 10, 10, 10, 10, 10, 10, 10, 10];
size=[5, 2, 1, 5, 4, 3, 5, 5, 3, 2, 2, 4, 1, 3, 3, 2, 3, 5, 1, 5, 3, 4, 2, 4, 3, 2, 5, 4, 3, 5, 5, 5, 4, 2, 3, 3, 3, 5, 2, 1, 2, 4, 5, 3, 3, 4, 2, 1, 3, 4, 2, 2, 5, 1, 1, 4, 5, 3, 4, 4, 1, 2, 2, 5, 2, 3, 1, 5, 1, 5, 4, 3, 5, 5, 2, 1, 3, 1, 2, 4, 3, 4, 3, 3, 3, 4, 1, 4, 5, 1, 1, 1, 3, 3, 1, 4, 2, 3, 4, 5, 4, 1, 3, 3, 5, 1, 3, 1, 3, 5, 1, 1, 2, 3, 2, 1, 5, 3, 1, 2, 1, 5, 2, 2, 4, 1, 2, 1, 5, 4, 2, 3, 5, 4, 1, 4, 1, 4, 3, 3, 3, 4, 4, 3, 4, 2, 1, 3, 1, 2, 4, 4, 4, 5, 3, 3, 3, 2, 4, 5, 1, 2, 2, 4, 1, 1, 1, 1, 5, 4, 5, 2, 5, 5, 4, 1, 5, 1, 4, 1, 5, 3, 1, 3, 2, 2, 2, 3, 1, 2, 2, 1, 5, 1, 2, 3, 2, 2, 4, 2, 2, 1, 5, 3, 5, 2, 3, 5, 4, 5, 5, 1, 1, 5, 3, 2, 5, 4, 3, 2, 3, 2, 4, 3, 4, 3, 3, 2, 5, 5, 2, 4, 5, 1, 2, 4, 3, 3, 2, 3, 2, 4, 4, 4, 4, 2, 1, 1, 3, 5, 1, 4, 5, 1, 3, 2, 3, 2, 1, 1, 5, 3, 2, 1, 1, 1, 3, 2, 5, 5, 5, 4, 4, 2, 4, 5, 5, 2, 1, 1, 4, 2, 1, 5, 3, 1, 5, 2, 4, 2, 3, 4, 3, 3, 1, 3, 5, 2, 2, 1, 4, 3, 1, 2, 2, 1, 1, 2, 5, 2, 3, 4, 4, 5, 3, 1, 1, 1, 4, 4, 1, 2, 5, 1, 1, 2, 3, 3, 1, 4, 4, 3, 3, 2, 5, 5, 4, 1, 4, 5, 2, 4, 3, 2, 3, 4, 1, 2, 1, 4, 1, 4, 3, 1, 2, 5, 1, 1, 1, 4, 4, 3, 1, 3, 3, 2, 4, 4, 3, 1, 5, 1, 1, 5, 2, 2, 3, 5, 2, 1, 5, 1, 3, 3, 5, 3, 1, 4, 4, 5, 2, 4, 1, 2, 5, 4, 5, 2, 1, 5, 4, 1, 4, 1, 5, 5, 3, 5, 3, 4, 1, 4, 3, 5, 4, 3, 5, 2, 5, 4, 4, 4, 1, 1, 5, 3, 1, 4, 3, 1, 2, 1, 4, 1, 3, 2, 1, 2, 5, 4, 3, 2, 2, 1, 5, 2, 1, 1, 2, 2, 1, 5, 4, 3, 5, 3, 1, 3, 2, 2, 1, 5, 5, 4, 5, 4, 3, 2, 4, 4, 5, 1, 3, 3, 5, 2, 5, 5, 4, 4, 2, 3, 2, 2, 1, 2, 1, 4, 3, 2, 2, 5, 2, 4, 4, 1, 1, 5, 5, 2, 2, 3, 3, 2, 3, 3, 2, 1, 5, 1, 4, 5, 5, 2, 2, 1, 5, 1, 5, 4, 3, 4, 2, 3, 3, 3, 5, 2, 4, 5, 5, 2, 4, 2, 3, 1, 1, 1, 2, 5, 5, 4, 3, 4, 5, 4, 2, 2, 5, 3, 1, 4, 1, 5, 5, 4, 3, 2, 2, 2, 1, 2, 1, 1, 3, 2, 5, 1, 1, 3, 2, 5, 2, 5, 4, 2, 3, 2, 1, 2, 5, 3, 4, 5, 5, 3, 2, 4, 1, 2, 1, 4, 4, 5, 5, 2, 4, 2, 4, 4, 2, 4, 5, 3, 1, 4, 3, 1, 2, 1, 3, 3, 3, 2, 5, 3, 3, 3, 1, 3, 1, 4, 5, 5, 1, 4, 2, 3, 3, 1, 5, 5, 4, 2, 1, 1, 5, 1, 2, 2, 4, 2, 1, 2, 1, 3, 4, 1, 5, 5, 4, 4, 1, 1, 3, 5, 3, 2, 5, 5, 3, 1, 1, 2, 5, 1, 2, 5, 5, 2, 3, 2, 3, 4, 5, 3, 1, 3, 2, 4, 2, 1, 2, 1, 5, 3, 5, 3, 3, 5, 2, 4, 4, 3, 2, 3, 1, 3, 5, 4, 2, 3, 5, 5, 2, 2, 3, 5, 3, 4, 4, 3, 1, 2, 4, 3, 2, 2, 3, 3, 1, 2, 1, 1, 2, 4, 5, 1, 1, 4, 2, 3, 5, 1, 1, 4, 1, 3, 1, 5, 3, 4, 1, 2, 2, 1, 4, 1, 4, 1, 3, 5, 3, 2, 3, 4, 1, 3, 3, 4, 4, 5, 4, 1, 5, 4, 5, 3, 3, 4, 5, 4, 5, 3, 1, 2, 3, 5, 5, 2, 2, 2, 2, 3, 5, 5, 1, 2, 1, 4, 4, 1, 1, 1, 5, 1, 5, 1, 5, 3, 1, 4, 1, 3, 2, 5, 4, 4, 5, 5, 5, 1, 4, 3, 4, 2, 4, 2, 1, 2, 2, 3, 2, 4, 2, 1, 1, 2, 5, 1, 1, 5, 1, 5, 4, 2, 3, 2, 2, 3, 3, 4, 4, 5, 2, 3, 4, 3, 5, 4, 1, 4, 2, 3, 4, 5, 2, 4, 3, 2, 3, 1, 1, 4, 5, 1, 5, 1, 4, 4, 4, 2, 1, 2, 3, 3, 5, 5, 5, 4, 5, 5, 1, 4, 3, 5, 1, 4, 4, 5, 5, 4, 2, 1, 5, 2, 3, 4, 5, 5, 5, 1, 3, 1, 1, 2, 1, 5, 5, 2, 5, 4, 5, 5, 2, 1, 5, 2, 5, 2, 2, 4, 4, 1, 2, 3, 5, 2, 1, 2, 1, 3, 5, 2, 4, 1, 5, 5, 4, 5, 4, 2, 5, 2, 3, 2, 2, 5, 1, 2, 2, 1, 5, 1, 4, 2, 1, 2, 2, 1, 1, 2, 2, 2, 4, 5, 3, 4, 2, 1, 3, 5, 4, 1, 4, 3, 2, 5, 1, 4, 4, 4, 2, 2, 5, 2, 3, 5, 1, 2, 1, 5, 3, 3, 1, 1, 4, 3, 5, 2];
attribute=[1, 1, 5, 4, 5, 5, 2, 1, 1, 3, 5, 5, 2, 1, 5, 5, 5, 2, 1, 1, 4, 3, 3, 5, 1, 1, 3, 2, 5, 5, 2, 5, 5, 2, 2, 5, 3, 2, 4, 4, 4, 3, 4, 5, 3, 1, 2, 2, 1, 5, 5, 5, 3, 1, 4, 4, 2, 4, 3, 1, 2, 4, 1, 5, 3, 2, 4, 1, 1, 4, 2, 5, 1, 4, 5, 5, 1, 3, 1, 4, 2, 3, 1, 4, 1, 4, 1, 1, 5, 1, 2, 3, 4, 2, 4, 5, 3, 1, 5, 4, 3, 4, 1, 4, 1, 2, 5, 5, 3, 5, 1, 2, 3, 1, 2, 4, 1, 5, 1, 4, 1, 3, 5, 2, 4, 2, 4, 2, 5, 2, 2, 5, 2, 2, 4, 2, 2, 3, 5, 5, 1, 4, 4, 4, 4, 4, 5, 1, 5, 3, 2, 5, 1, 2, 2, 5, 4, 4, 2, 2, 1, 2, 4, 2, 4, 1, 3, 5, 2, 5, 3, 2, 2, 2, 5, 3, 5, 5, 5, 5, 5, 5, 3, 1, 4, 3, 5, 1, 4, 2, 3, 3, 1, 1, 1, 5, 3, 4, 3, 4, 1, 5, 4, 5, 2, 3, 5, 4, 5, 3, 1, 1, 5, 3, 1, 4, 5, 3, 3, 5, 1, 1, 1, 1, 1, 2, 3, 4, 5, 1, 4, 4, 4, 3, 2, 2, 4, 5, 1, 3, 4, 1, 5, 2, 1, 1, 4, 1, 4, 2, 2, 1, 1, 2, 3, 4, 1, 1, 2, 4, 1, 1, 4, 1, 3, 1, 2, 1, 2, 2, 2, 1, 4, 5, 2, 5, 4, 3, 3, 1, 1, 4, 5, 5, 2, 1, 4, 2, 2, 3, 4, 5, 1, 5, 1, 4, 4, 2, 1, 2, 2, 3, 1, 5, 3, 3, 3, 5, 2, 2, 5, 4, 5, 2, 3, 3, 4, 4, 5, 3, 3, 3, 1, 3, 3, 5, 4, 3, 5, 4, 5, 2, 3, 1, 4, 3, 5, 2, 5, 1, 5, 5, 4, 1, 5, 1, 4, 2, 4, 1, 3, 1, 1, 4, 5, 5, 2, 4, 2, 3, 1, 4, 5, 4, 3, 5, 3, 2, 4, 5, 2, 4, 3, 4, 5, 4, 1, 3, 5, 1, 1, 1, 3, 3, 2, 2, 1, 1, 4, 4, 1, 2, 2, 2, 1, 5, 2, 5, 3, 1, 2, 2, 3, 5, 3, 3, 5, 4, 5, 3, 2, 2, 4, 1, 1, 1, 4, 4, 1, 3, 3, 4, 5, 3, 2, 2, 3, 2, 5, 2, 3, 1, 1, 1, 1, 5, 4, 1, 3, 2, 5, 2, 2, 5, 3, 3, 5, 2, 2, 5, 4, 4, 2, 1, 4, 5, 1, 2, 5, 2, 1, 1, 1, 2, 4, 2, 4, 3, 1, 3, 4, 2, 3, 1, 4, 1, 4, 3, 5, 4, 4, 5, 4, 2, 5, 3, 3, 3, 5, 2, 1, 3, 2, 4, 2, 3, 3, 3, 5, 3, 2, 1, 1, 3, 1, 5, 4, 4, 4, 2, 4, 5, 2, 5, 4, 4, 3, 2, 1, 2, 4, 1, 2, 4, 1, 3, 4, 1, 1, 2, 1, 4, 4, 4, 1, 2, 1, 3, 3, 5, 5, 5, 3, 2, 1, 2, 3, 4, 1, 3, 5, 3, 5, 4, 1, 3, 3, 5, 2, 1, 3, 2, 1, 4, 5, 4, 1, 1, 2, 4, 1, 2, 1, 4, 1, 2, 1, 1, 3, 2, 4, 5, 2, 2, 5, 1, 3, 5, 2, 3, 1, 1, 2, 1, 5, 1, 3, 3, 4, 2, 2, 3, 4, 2, 5, 4, 2, 4, 5, 4, 2, 1, 3, 2, 1, 2, 1, 2, 4, 5, 1, 2, 4, 3, 2, 1, 2, 2, 2, 4, 2, 3, 1, 5, 2, 2, 4, 5, 3, 1, 4, 1, 2, 2, 2, 1, 3, 4, 5, 2, 1, 2, 4, 2, 5, 1, 1, 1, 4, 2, 2, 5, 2, 1, 4, 4, 3, 4, 1, 1, 4, 2, 3, 4, 4, 5, 5, 4, 1, 1, 4, 1, 2, 2, 3, 3, 4, 1, 3, 5, 4, 4, 5, 4, 4, 3, 5, 2, 3, 4, 1, 2, 3, 2, 3, 5, 1, 2, 4, 4, 4, 3, 5, 2, 5, 5, 4, 5, 1, 2, 4, 5, 3, 1, 1, 5, 1, 2, 4, 4, 1, 3, 4, 3, 3, 5, 2, 5, 3, 5, 5, 3, 5, 4, 4, 1, 5, 4, 4, 2, 2, 2, 4, 5, 1, 1, 3, 5, 5, 4, 3, 4, 4, 4, 4, 5, 2, 3, 4, 1, 4, 3, 4, 2, 3, 3, 1, 4, 5, 3, 1, 1, 5, 4, 4, 4, 3, 4, 2, 1, 3, 5, 2, 3, 4, 2, 2, 5, 3, 1, 2, 2, 5, 1, 5, 5, 1, 4, 1, 2, 3, 1, 3, 2, 5, 3, 4, 4, 4, 1, 5, 1, 4, 4, 1, 4, 1, 4, 2, 1, 4, 1, 1, 2, 4, 3, 5, 4, 5, 3, 1, 2, 5, 1, 5, 3, 3, 5, 1, 3, 2, 1, 2, 1, 4, 4, 3, 1, 1, 4, 3, 4, 2, 4, 4, 3, 5, 1, 3, 4, 2, 3, 1, 4, 3, 5, 3, 3, 1, 3, 2, 3, 3, 3, 1, 1, 1, 3, 3, 4, 4, 3, 4, 1, 5, 5, 1, 3, 1, 5, 3, 1, 2, 1, 5, 2, 5, 5, 2, 2, 3, 5, 5, 1, 2, 1, 5, 1, 2, 3, 5, 3, 5, 3, 3, 1, 5, 5, 3, 1, 4, 2, 3, 4, 1, 2, 4, 2, 2, 3, 5, 3, 5, 5, 1, 3, 2, 5, 4, 4, 3, 5, 3, 3, 5, 2, 5, 4, 1, 5, 5, 4, 3, 3, 1, 3, 1, 4, 4, 2, 5, 1, 5, 2, 5, 1, 2, 1, 4, 3, 5, 3, 2, 3, 1, 1, 3, 5, 4, 2, 4, 4, 4, 5, 3, 4, 2, 3, 4, 2];

upper_bound_integer_objective=30000;
mult_factor_total_runtime=2;
mult_factor_finished_toolate=12;
mult_factor_total_setuptimes=0;
mult_factor_total_setupcosts=2;
running_time_bound=5524;
min_duration=1;
max_duration=10;
max_setup_time=3;
max_setup_cost=3;